25° run output:
{
    "Function": "kroA1000.tsp",
    "Problem dimension": [
        957,
        677,
        530,
        814,
        444,
        283,
        893,
        434,
        285,
        202,
        386,
        78,
        907,
        459,
        952,
        189,
        828,
        239,
        797,
        620,
        979,
        52,
        486,
        537,
        333,
        358,
        413,
        631,
        67,
        466,
        40,
        738,
        391,
        610,
        514,
        879,
        150,
        235,
        38,
        892,
        534,
        114,
        658,
        998,
        801,
        885,
        185,
        932,
        131,
        166,
        230,
        362,
        816,
        562,
        970,
        853,
        205,
        843,
        933,
        795,
        649,
        715,
        139,
        931,
        802,
        646,
        916,
        439,
        441,
        94,
        142,
        74,
        955,
        872,
        676,
        268,
        288,
        133,
        611,
        734,
        303,
        198,
        213,
        688,
        963,
        214,
        891,
        668,
        989,
        289,
        407,
        374,
        571,
        79,
        390,
        640,
        344,
        203,
        868,
        787,
        655,
        108,
        833,
        845,
        565,
        785,
        2,
        369,
        903,
        859,
        188,
        838,
        144,
        43,
        925,
        641,
        757,
        573,
        841,
        653,
        536,
        633,
        291,
        161,
        876,
        409,
        401,
        503,
        179,
        242,
        393,
        232,
        320,
        538,
        410,
        204,
        660,
        575,
        768,
        766,
        219,
        627,
        920,
        119,
        883,
        542,
        68,
        661,
        849,
        448,
        181,
        796,
        804,
        708,
        347,
        310,
        216,
        776,
        687,
        783,
        744,
        111,
        779,
        218,
        839,
        720,
        63,
        523,
        948,
        287,
        476,
        172,
        124,
        700,
        463,
        824,
        617,
        492,
        53,
        826,
        210,
        257,
        691,
        749,
        702,
        729,
        810,
        272,
        280,
        695,
        399,
        735,
        586,
        852,
        427,
        481,
        382,
        66,
        101,
        625,
        274,
        249,
        984,
        614,
        330,
        501,
        50,
        309,
        525,
        666,
        712,
        686,
        412,
        58,
        483,
        51,
        245,
        353,
        368,
        815,
        532,
        420,
        456,
        861,
        961,
        669,
        426,
        570,
        698,
        951,
        127,
        322,
        278,
        747,
        880,
        7,
        82,
        311,
        908,
        301,
        29,
        721,
        733,
        901,
        767,
        59,
        149,
        117,
        158,
        175,
        225,
        62,
        28,
        799,
        343,
        752,
        656,
        622,
        626,
        820,
        453,
        673,
        817,
        964,
        612,
        706,
        603,
        619,
        355,
        764,
        956,
        857,
        260,
        758,
        346,
        682,
        825,
        674,
        423,
        27,
        918,
        944,
        995,
        270,
        236,
        759,
        296,
        259,
        775,
        95,
        974,
        92,
        361,
        36,
        284,
        667,
        508,
        867,
        279,
        241,
        821,
        736,
        208,
        771,
        414,
        827,
        159,
        470,
        943,
        635,
        488,
        336,
        953,
        477,
        206,
        628,
        726,
        293,
        780,
        560,
        993,
        535,
        428,
        482,
        499,
        506,
        357,
        191,
        798,
        429,
        489,
        850,
        143,
        422,
        281,
        934,
        231,
        360,
        938,
        950,
        411,
        132,
        647,
        725,
        578,
        366,
        600,
        683,
        962,
        473,
        684,
        81,
        437,
        782,
        238,
        982,
        728,
        14,
        559,
        991,
        192,
        713,
        26,
        388,
        548,
        545,
        915,
        318,
        35,
        806,
        398,
        174,
        276,
        496,
        692,
        457,
        116,
        937,
        425,
        811,
        313,
        760,
        196,
        927,
        416,
        834,
        711,
        37,
        638,
        582,
        6,
        866,
        689,
        518,
        408,
        383,
        211,
        452,
        539,
        376,
        180,
        80,
        978,
        980,
        805,
        844,
        337,
        577,
        495,
        356,
        378,
        105,
        455,
        659,
        671,
        464,
        650,
        731,
        162,
        207,
        148,
        12,
        173,
        187,
        819,
        340,
        438,
        243,
        703,
        329,
        800,
        157,
        557,
        913,
        930,
        556,
        875,
        679,
        719,
        228,
        807,
        569,
        803,
        851,
        977,
        519,
        939,
        587,
        447,
        895,
        104,
        394,
        417,
        531,
        724,
        209,
        491,
        254,
        195,
        790,
        900,
        265,
        98,
        751,
        929,
        696,
        546,
        134,
        13,
        109,
        739,
        976,
        145,
        152,
        784,
        510,
        377,
        923,
        246,
        761,
        106,
        837,
        182,
        352,
        458,
        125,
        324,
        454,
        701,
        636,
        400,
        130,
        878,
        396,
        99,
        960,
        234,
        988,
        338,
        325,
        818,
        312,
        555,
        300,
        494,
        290,
        654,
        884,
        315,
        958,
        865,
        277,
        741,
        25,
        96,
        449,
        524,
        863,
        460,
        342,
        250,
        693,
        168,
        746,
        967,
        395,
        540,
        212,
        255,
        389,
        302,
        549,
        201,
        973,
        292,
        298,
        262,
        90,
        112,
        220,
        774,
        997,
        490,
        574,
        363,
        882,
        88,
        507,
        222,
        44,
        558,
        657,
        517,
        592,
        93,
        898,
        497,
        305,
        154,
        450,
        856,
        864,
        403,
        446,
        197,
        947,
        56,
        954,
        474,
        886,
        155,
        928,
        316,
        321,
        717,
        110,
        341,
        941,
        141,
        651,
        10,
        379,
        275,
        190,
        487,
        22,
        637,
        777,
        271,
        247,
        675,
        596,
        227,
        888,
        694,
        504,
        792,
        19,
        122,
        115,
        381,
        855,
        163,
        936,
        138,
        253,
        240,
        597,
        869,
        716,
        120,
        351,
        306,
        87,
        981,
        599,
        500,
        42,
        858,
        308,
        743,
        273,
        987,
        387,
        478,
        75,
        999,
        248,
        553,
        348,
        484,
        588,
        740,
        664,
        380,
        9,
        584,
        194,
        874,
        71,
        773,
        121,
        639,
        789,
        137,
        502,
        177,
        870,
        521,
        332,
        73,
        786,
        902,
        297,
        199,
        917,
        754,
        215,
        910,
        468,
        832,
        975,
        509,
        770,
        165,
        335,
        986,
        435,
        847,
        896,
        61,
        723,
        244,
        894,
        769,
        91,
        745,
        328,
        282,
        594,
        727,
        750,
        564,
        118,
        83,
        515,
        772,
        529,
        512,
        926,
        18,
        8,
        813,
        533,
        755,
        314,
        590,
        493,
        606,
        65,
        20,
        662,
        563,
        996,
        763,
        718,
        64,
        436,
        16,
        326,
        30,
        3,
        678,
        23,
        77,
        364,
        985,
        644,
        604,
        176,
        54,
        334,
        966,
        624,
        475,
        505,
        528,
        402,
        15,
        0,
        24,
        887,
        547,
        397,
        102,
        267,
        472,
        714,
        113,
        781,
        21,
        70,
        431,
        375,
        233,
        522,
        418,
        516,
        914,
        699,
        778,
        323,
        983,
        722,
        788,
        543,
        140,
        897,
        156,
        613,
        47,
        912,
        583,
        103,
        871,
        406,
        831,
        585,
        554,
        860,
        319,
        217,
        730,
        835,
        86,
        905,
        526,
        544,
        146,
        193,
        256,
        823,
        469,
        365,
        762,
        126,
        171,
        791,
        367,
        55,
        415,
        605,
        129,
        881,
        223,
        128,
        595,
        753,
        151,
        890,
        685,
        350,
        842,
        681,
        160,
        266,
        968,
        4,
        945,
        935,
        812,
        295,
        178,
        616,
        261,
        331,
        39,
        630,
        440,
        49,
        200,
        846,
        971,
        392,
        97,
        793,
        680,
        623,
        76,
        513,
        992,
        354,
        60,
        34,
        652,
        922,
        568,
        899,
        909,
        433,
        566,
        224,
        942,
        808,
        618,
        479,
        294,
        836,
        552,
        840,
        550,
        946,
        304,
        89,
        41,
        72,
        940,
        57,
        461,
        430,
        541,
        359,
        877,
        921,
        598,
        591,
        480,
        572,
        229,
        794,
        451,
        465,
        511,
        164,
        384,
        424,
        419,
        972,
        11,
        339,
        307,
        69,
        264,
        732,
        994,
        84,
        848,
        737,
        748,
        498,
        485,
        634,
        632,
        906,
        167,
        609,
        707,
        580,
        258,
        615,
        373,
        471,
        911,
        186,
        949,
        965,
        404,
        17,
        123,
        48,
        567,
        579,
        551,
        349,
        527,
        135,
        742,
        107,
        959,
        147,
        462,
        467,
        170,
        621,
        31,
        169,
        432,
        642,
        607,
        608,
        645,
        670,
        705,
        648,
        593,
        854,
        873,
        100,
        263,
        183,
        629,
        765,
        221,
        1,
        184,
        85,
        710,
        405,
        269,
        45,
        704,
        697,
        643,
        299,
        990,
        226,
        251,
        445,
        286,
        601,
        576,
        602,
        889,
        371,
        237,
        32,
        919,
        709,
        421,
        370,
        317,
        443,
        581,
        345,
        589,
        252,
        665,
        663,
        520,
        822,
        969,
        33,
        46,
        904,
        690,
        756,
        5,
        829,
        862,
        830,
        924,
        153,
        442,
        327,
        809,
        385,
        672,
        136,
        561,
        372
    ],
    "Global Optimum": 0,
    "Algorithm": "Genetic algorithm",
    "Parameters": {
        "population": 30,
        "offspring": 30,
        "mutation probability": 0.001,
        "crossover probability": 0.9
    },
    "Fitness": 1322459,
    "Solution": [
        957,
        677,
        530,
        814,
        444,
        283,
        893,
        434,
        285,
        202,
        386,
        78,
        907,
        459,
        952,
        189,
        828,
        239,
        797,
        620,
        979,
        52,
        486,
        537,
        333,
        358,
        413,
        631,
        67,
        466,
        40,
        738,
        391,
        610,
        514,
        879,
        150,
        235,
        38,
        892,
        534,
        114,
        658,
        998,
        801,
        885,
        185,
        932,
        131,
        166,
        230,
        362,
        816,
        562,
        970,
        853,
        205,
        843,
        933,
        795,
        649,
        715,
        139,
        931,
        802,
        646,
        916,
        439,
        441,
        94,
        142,
        74,
        955,
        872,
        676,
        268,
        288,
        133,
        611,
        734,
        303,
        198,
        213,
        688,
        963,
        214,
        891,
        668,
        989,
        289,
        407,
        374,
        571,
        79,
        390,
        640,
        344,
        203,
        868,
        787,
        655,
        108,
        833,
        845,
        565,
        785,
        2,
        369,
        903,
        859,
        188,
        838,
        144,
        43,
        925,
        641,
        757,
        573,
        841,
        653,
        536,
        633,
        291,
        161,
        876,
        409,
        401,
        503,
        179,
        242,
        393,
        232,
        320,
        538,
        410,
        204,
        660,
        575,
        768,
        766,
        219,
        627,
        920,
        119,
        883,
        542,
        68,
        661,
        849,
        448,
        181,
        796,
        804,
        708,
        347,
        310,
        216,
        776,
        687,
        783,
        744,
        111,
        779,
        218,
        839,
        720,
        63,
        523,
        948,
        287,
        476,
        172,
        124,
        700,
        463,
        824,
        617,
        492,
        53,
        826,
        210,
        257,
        691,
        749,
        702,
        729,
        810,
        272,
        280,
        695,
        399,
        735,
        586,
        852,
        427,
        481,
        382,
        66,
        101,
        625,
        274,
        249,
        984,
        614,
        330,
        501,
        50,
        309,
        525,
        666,
        712,
        686,
        412,
        58,
        483,
        51,
        245,
        353,
        368,
        815,
        532,
        420,
        456,
        861,
        961,
        669,
        426,
        570,
        698,
        951,
        127,
        322,
        278,
        747,
        880,
        7,
        82,
        311,
        908,
        301,
        29,
        721,
        733,
        901,
        767,
        59,
        149,
        117,
        158,
        175,
        225,
        62,
        28,
        799,
        343,
        752,
        656,
        622,
        626,
        820,
        453,
        673,
        817,
        964,
        612,
        706,
        603,
        619,
        355,
        764,
        956,
        857,
        260,
        758,
        346,
        682,
        825,
        674,
        423,
        27,
        918,
        944,
        995,
        270,
        236,
        759,
        296,
        259,
        775,
        95,
        974,
        92,
        361,
        36,
        284,
        667,
        508,
        867,
        279,
        241,
        821,
        736,
        208,
        771,
        414,
        827,
        159,
        470,
        943,
        635,
        488,
        336,
        953,
        477,
        206,
        628,
        726,
        293,
        780,
        560,
        993,
        535,
        428,
        482,
        499,
        506,
        357,
        191,
        798,
        429,
        489,
        850,
        143,
        422,
        281,
        934,
        231,
        360,
        938,
        950,
        411,
        132,
        647,
        725,
        578,
        366,
        600,
        683,
        962,
        473,
        684,
        81,
        437,
        782,
        238,
        982,
        728,
        14,
        559,
        991,
        192,
        713,
        26,
        388,
        548,
        545,
        915,
        318,
        35,
        806,
        398,
        174,
        276,
        496,
        692,
        457,
        116,
        937,
        425,
        811,
        313,
        760,
        196,
        927,
        416,
        834,
        711,
        37,
        638,
        582,
        6,
        866,
        689,
        518,
        408,
        383,
        211,
        452,
        539,
        376,
        180,
        80,
        978,
        980,
        805,
        844,
        337,
        577,
        495,
        356,
        378,
        105,
        455,
        659,
        671,
        464,
        650,
        731,
        162,
        207,
        148,
        12,
        173,
        187,
        819,
        340,
        438,
        243,
        703,
        329,
        800,
        157,
        557,
        913,
        930,
        556,
        875,
        679,
        719,
        228,
        807,
        569,
        803,
        851,
        977,
        519,
        939,
        587,
        447,
        895,
        104,
        394,
        417,
        531,
        724,
        209,
        491,
        254,
        195,
        790,
        900,
        265,
        98,
        751,
        929,
        696,
        546,
        134,
        13,
        109,
        739,
        976,
        145,
        152,
        784,
        510,
        377,
        923,
        246,
        761,
        106,
        837,
        182,
        352,
        458,
        125,
        324,
        454,
        701,
        636,
        400,
        130,
        878,
        396,
        99,
        960,
        234,
        988,
        338,
        325,
        818,
        312,
        555,
        300,
        494,
        290,
        654,
        884,
        315,
        958,
        865,
        277,
        741,
        25,
        96,
        449,
        524,
        863,
        460,
        342,
        250,
        693,
        168,
        746,
        967,
        395,
        540,
        212,
        255,
        389,
        302,
        549,
        201,
        973,
        292,
        298,
        262,
        90,
        112,
        220,
        774,
        997,
        490,
        574,
        363,
        882,
        88,
        507,
        222,
        44,
        558,
        657,
        517,
        592,
        93,
        898,
        497,
        305,
        154,
        450,
        856,
        864,
        403,
        446,
        197,
        947,
        56,
        954,
        474,
        886,
        155,
        928,
        316,
        321,
        717,
        110,
        341,
        941,
        141,
        651,
        10,
        379,
        275,
        190,
        487,
        22,
        637,
        777,
        271,
        247,
        675,
        596,
        227,
        888,
        694,
        504,
        792,
        19,
        122,
        115,
        381,
        855,
        163,
        936,
        138,
        253,
        240,
        597,
        869,
        716,
        120,
        351,
        306,
        87,
        981,
        599,
        500,
        42,
        858,
        308,
        743,
        273,
        987,
        387,
        478,
        75,
        999,
        248,
        553,
        348,
        484,
        588,
        740,
        664,
        380,
        9,
        584,
        194,
        874,
        71,
        773,
        121,
        639,
        789,
        137,
        502,
        177,
        870,
        521,
        332,
        73,
        786,
        902,
        297,
        199,
        917,
        754,
        215,
        910,
        468,
        832,
        975,
        509,
        770,
        165,
        335,
        986,
        435,
        847,
        896,
        61,
        723,
        244,
        894,
        769,
        91,
        745,
        328,
        282,
        594,
        727,
        750,
        564,
        118,
        83,
        515,
        772,
        529,
        512,
        926,
        18,
        8,
        813,
        533,
        755,
        314,
        590,
        493,
        606,
        65,
        20,
        662,
        563,
        996,
        763,
        718,
        64,
        436,
        16,
        326,
        30,
        3,
        678,
        23,
        77,
        364,
        985,
        644,
        604,
        176,
        54,
        334,
        966,
        624,
        475,
        505,
        528,
        402,
        15,
        0,
        24,
        887,
        547,
        397,
        102,
        267,
        472,
        714,
        113,
        781,
        21,
        70,
        431,
        375,
        233,
        522,
        418,
        516,
        914,
        699,
        778,
        323,
        983,
        722,
        788,
        543,
        140,
        897,
        156,
        613,
        47,
        912,
        583,
        103,
        871,
        406,
        831,
        585,
        554,
        860,
        319,
        217,
        730,
        835,
        86,
        905,
        526,
        544,
        146,
        193,
        256,
        823,
        469,
        365,
        762,
        126,
        171,
        791,
        367,
        55,
        415,
        605,
        129,
        881,
        223,
        128,
        595,
        753,
        151,
        890,
        685,
        350,
        842,
        681,
        160,
        266,
        968,
        4,
        945,
        935,
        812,
        295,
        178,
        616,
        261,
        331,
        39,
        630,
        440,
        49,
        200,
        846,
        971,
        392,
        97,
        793,
        680,
        623,
        76,
        513,
        992,
        354,
        60,
        34,
        652,
        922,
        568,
        899,
        909,
        433,
        566,
        224,
        942,
        808,
        618,
        479,
        294,
        836,
        552,
        840,
        550,
        946,
        304,
        89,
        41,
        72,
        940,
        57,
        461,
        430,
        541,
        359,
        877,
        921,
        598,
        591,
        480,
        572,
        229,
        794,
        451,
        465,
        511,
        164,
        384,
        424,
        419,
        972,
        11,
        339,
        307,
        69,
        264,
        732,
        994,
        84,
        848,
        737,
        748,
        498,
        485,
        634,
        632,
        906,
        167,
        609,
        707,
        580,
        258,
        615,
        373,
        471,
        911,
        186,
        949,
        965,
        404,
        17,
        123,
        48,
        567,
        579,
        551,
        349,
        527,
        135,
        742,
        107,
        959,
        147,
        462,
        467,
        170,
        621,
        31,
        169,
        432,
        642,
        607,
        608,
        645,
        670,
        705,
        648,
        593,
        854,
        873,
        100,
        263,
        183,
        629,
        765,
        221,
        1,
        184,
        85,
        710,
        405,
        269,
        45,
        704,
        697,
        643,
        299,
        990,
        226,
        251,
        445,
        286,
        601,
        576,
        602,
        889,
        371,
        237,
        32,
        919,
        709,
        421,
        370,
        317,
        443,
        581,
        345,
        589,
        252,
        665,
        663,
        520,
        822,
        969,
        33,
        46,
        904,
        690,
        756,
        5,
        829,
        862,
        830,
        924,
        153,
        442,
        327,
        809,
        385,
        672,
        136,
        561,
        372
    ],
    "Nb of functions evaluations": 200010,
    "Computational time in seconds": 2843.4639530181885,
    "Stopping criterion in evaluations": 200000
}